10	5
0	4	4	2	3	1
1	1	11
2	2	8	7
3	1	7
4	4	6	5	8	7
5	2	9	10
6	1	11
7	1	11
8	1	11
9	1	11
10	1	11
11	0
0	0	0	0	0	0	0
1	9	0	4	0	4	1
2	1	2	2	2	4	4
3	5	4	2	3	4	4
4	8	4	2	0	2	3
5	2	4	1	3	5	1
6	8	2	2	2	4	0
7	1	0	0	1	3	4
8	9	3	1	3	4	1
9	8	0	0	0	0	4
10	1	0	1	3	1	0
11	0	0	0	0	0	0
4	5	2	6	4
